100 1000
1 14
1 8
1 20
1 10
1 39
2 21
2 46
1 41
2 10
2 27
1 11
2 40
2 20
2 44
2 39
1 16
2 7
1 15
1 5
2 13
1 19
1 28
2 40
2 29
2 13
2 35
1 19
1 43
2 3
1 35
2 32
2 49
1 24
2 30
2 25
2 4
1 47
2 34
1 36
1 3
2 33
2 12
1 1
1 49
1 23
2 41
1 22
1 48
1 38
1 29
2 6
2 48
1 37
1 18
1 8
1 50
1 50
2 31
2 23
1 44
1 47
2 27
1 33
1 6
1 26
2 26
1 45
2 12
2 28
2 9
2 15
1 25
2 11
1 42
1 37
2 32
2 24
2 31
1 16
1 36
2 42
2 7
1 14
2 5
1 9
2 38
1 18
1 2
1 17
1 43
1 17
1 1
2 22
2 4
2 30
1 45
1 21
2 34
2 46
1 2
